% Instancia generada para Grupo 5
% Diámetros: [75, 100, 150] mm
% Capacidades: [795, 1414, 3181] l/min
% Demanda total: 1354 l/min
% Costos tipo a: 276, tipo b: 231
% Semilla: 855329

nP = 1;
nT = 7;
nC1 = 9;
nC2 = 11;
N = 28;

nA = 169;
arc_from = [1, 1, 1, 1, 1, 1, 1, 2, 2, 2, 2, 2, 2, 2, 2, 2, 3, 3, 3, 3, 3, 3, 3, 3, 3, 4, 4, 4, 4, 4, 4, 4, 4, 4, 5, 5, 5, 5, 5, 5, 5, 5, 5, 6, 6, 6, 6, 6, 6, 6, 6, 6, 7, 7, 7, 7, 7, 7, 7, 7, 7, 8, 8, 8, 8, 8, 8, 8, 8, 8, 9, 9, 9, 9, 9, 9, 9, 9, 9, 9, 9, 10, 10, 10, 10, 10, 10, 10, 10, 10, 10, 10, 11, 11, 11, 11, 11, 11, 11, 11, 11, 11, 11, 12, 12, 12, 12, 12, 12, 12, 12, 12, 12, 12, 13, 13, 13, 13, 13, 13, 13, 13, 13, 13, 13, 14, 14, 14, 14, 14, 14, 14, 14, 14, 14, 14, 15, 15, 15, 15, 15, 15, 15, 15, 15, 15, 15, 16, 16, 16, 16, 16, 16, 16, 16, 16, 16, 16, 17, 17, 17, 17, 17, 17, 17, 17, 17, 17, 17];
arc_to   = [2, 3, 4, 5, 6, 7, 8, 9, 10, 11, 12, 13, 14, 15, 16, 17, 9, 10, 11, 12, 13, 14, 15, 16, 17, 9, 10, 11, 12, 13, 14, 15, 16, 17, 9, 10, 11, 12, 13, 14, 15, 16, 17, 9, 10, 11, 12, 13, 14, 15, 16, 17, 9, 10, 11, 12, 13, 14, 15, 16, 17, 9, 10, 11, 12, 13, 14, 15, 16, 17, 18, 19, 20, 21, 22, 23, 24, 25, 26, 27, 28, 18, 19, 20, 21, 22, 23, 24, 25, 26, 27, 28, 18, 19, 20, 21, 22, 23, 24, 25, 26, 27, 28, 18, 19, 20, 21, 22, 23, 24, 25, 26, 27, 28, 18, 19, 20, 21, 22, 23, 24, 25, 26, 27, 28, 18, 19, 20, 21, 22, 23, 24, 25, 26, 27, 28, 18, 19, 20, 21, 22, 23, 24, 25, 26, 27, 28, 18, 19, 20, 21, 22, 23, 24, 25, 26, 27, 28, 18, 19, 20, 21, 22, 23, 24, 25, 26, 27, 28];

demand = [0, 0, 0, 0, 0, 0, 0, 0, 49, 44, 93, 66, 88, 42, 45, 51, 60, 89, 79, 47, 93, 61, 48, 73, 96, 57, 76, 97];

install_cost = array2d(1..169, 1..3, [50, 24, 32, 20, 24, 78, 20, 24, 32, 50, 62, 32, 50, 24, 78, 20, 24, 78, 20, 24, 78, 50, 62, 32, 50, 24, 78, 50, 24, 32, 20, 62, 32, 20, 24, 32, 50, 24, 32, 20, 24, 78, 50, 24, 78, 50, 62, 78, 20, 62, 78, 20, 62, 32, 20, 24, 78, 20, 62, 32, 50, 24, 78, 20, 24, 78, 20, 24, 78, 50, 62, 32, 20, 24, 78, 50, 24, 78, 20, 24, 32, 20, 24, 32, 20, 24, 78, 50, 24, 32, 50, 24, 78, 20, 62, 32, 50, 62, 78, 50, 24, 32, 50, 62, 32, 50, 62, 78, 20, 62, 78, 20, 24, 78, 20, 24, 78, 20, 62, 32, 50, 24, 32, 50, 24, 78, 50, 24, 78, 50, 62, 32, 20, 24, 78, 20, 24, 78, 50, 62, 78, 50, 24, 32, 20, 24, 78, 50, 24, 32, 20, 62, 78, 20, 62, 78, 50, 24, 78, 20, 62, 78, 50, 62, 78, 20, 24, 78, 20, 62, 78, 20, 24, 32, 20, 24, 78, 50, 24, 32, 50, 62, 78, 20, 24, 32, 20, 24, 32, 20, 24, 78, 20, 24, 78, 20, 62, 32, 50, 62, 32, 50, 62, 78, 20, 24, 32, 50, 24, 32, 20, 62, 32, 50, 62, 32, 50, 62, 78, 20, 62, 32, 20, 24, 32, 20, 62, 32, 20, 24, 32, 50, 24, 78, 50, 24, 78, 20, 62, 32, 50, 62, 32, 50, 24, 78, 50, 24, 78, 20, 62, 78, 20, 62, 78, 20, 62, 78, 20, 62, 32, 20, 24, 32, 20, 24, 32, 20, 24, 78, 20, 62, 32, 50, 24, 78, 50, 62, 78, 50, 24, 78, 50, 62, 78, 50, 62, 32, 20, 24, 32, 50, 24, 78, 50, 62, 78, 20, 62, 32, 50, 62, 32, 20, 62, 32, 20, 24, 78, 20, 62, 78, 50, 24, 32, 20, 24, 32, 20, 24, 32, 20, 62, 32, 20, 62, 32, 20, 62, 78, 20, 62, 32, 50, 62, 78, 20, 62, 32, 50, 24, 32, 20, 62, 32, 20, 24, 78, 50, 24, 32, 20, 62, 32, 20, 62, 32, 20, 62, 32, 20, 24, 78, 50, 24, 78, 20, 62, 32, 50, 24, 78, 20, 24, 32, 20, 24, 78, 50, 24, 32, 20, 62, 78, 20, 62, 32, 50, 24, 78, 20, 24, 78, 20, 62, 78, 20, 24, 32, 50, 62, 32, 50, 62, 32, 20, 62, 78, 50, 24, 32, 50, 62, 78, 20, 62, 32, 50, 24, 78, 20, 24, 32, 20, 24, 78, 20, 24, 32, 20, 24, 78, 20, 24, 78, 20, 62, 32, 20, 62, 32, 20, 24, 78, 50, 24, 32, 50, 24, 78, 20, 24, 32, 20, 62, 78, 20, 62, 32, 50, 24, 32, 50, 62, 32, 20, 24, 78, 20, 24, 32, 50, 24, 32, 20, 62, 32, 20, 24, 32, 20, 24, 78, 50, 62, 32, 20, 24, 78, 50, 62, 78, 50, 62, 78, 20, 24, 78, 20, 62, 78, 50, 62, 78, 20, 62, 78]);
trans_cost   = [7.19, 8.72, 8.08, 7.92, 5.08, 7.28, 8.5, 9.0, 8.46, 6.2, 10.38, 8.18, 9.08, 7.97, 4.98, 7.18, 8.42, 10.76, 9.41, 7.55, 8.76, 5.46, 8.86, 10.68, 7.81, 10.81, 8.91, 6.16, 5.69, 8.36, 9.73, 5.36, 11.73, 5.31, 8.29, 9.31, 7.31, 9.04, 9.08, 9.22, 11.02, 9.68, 7.46, 7.59, 7.66, 4.84, 5.54, 10.78, 6.63, 7.22, 8.0, 8.94, 9.95, 8.22, 9.66, 10.17, 10.81, 7.58, 7.01, 9.79, 7.35, 5.43, 6.78, 7.11, 5.12, 9.47, 4.58, 8.35, 10.61, 9.26, 8.4, 8.76, 7.08, 8.83, 10.21, 9.76, 11.67, 4.3, 6.48, 7.42, 9.87, 8.73, 7.64, 5.46, 6.9, 8.14, 7.44, 10.31, 8.99, 10.93, 8.87, 10.43, 6.5, 8.46, 8.32, 11.09, 7.11, 3.73, 9.93, 7.45, 8.43, 13.64, 8.43, 10.4, 5.94, 6.02, 8.65, 7.94, 4.55, 9.37, 8.43, 5.64, 9.65, 12.07, 8.96, 6.97, 8.98, 9.61, 8.16, 6.2, 6.42, 8.87, 5.97, 7.21, 8.44, 12.64, 7.87, 10.31, 12.09, 9.06, 10.73, 10.17, 8.24, 11.41, 5.11, 9.14, 8.53, 4.37, 6.5, 6.73, 6.31, 9.33, 8.1, 9.4, 10.13, 6.59, 11.97, 6.49, 12.84, 10.21, 8.16, 7.59, 8.97, 9.32, 6.95, 5.67, 4.98, 8.57, 8.62, 5.94, 8.61, 5.49, 7.34, 4.09, 6.32, 7.59, 9.54, 7.2, 10.02];
